(declare-const a Real)
(declare-const b Real)
(declare-const c Real)
(assert (= (+ a b c) 3))
(assert (> a 0))
(assert (> b 0))
(assert (> c 0))
(assert (not (<= (+ (* -276 a (pow c 4)) (* -276 b (pow a 4)) (* -267 c (pow b 4)) (* -92 a (pow b 4)) (* -92 b (pow c 4)) (* -84 (pow a 2) (pow c 3)) (* -84 (pow a 3) (pow b 2)) (* -83 c (pow a 4)) (* 18 c (+ (* (/ 1 32) (pow (+ (* 2 a) (* 2 b)) 3)) (* (/ 1 4096) (pow (+ (* 2 a) (* 2 b)) 6)))) (* 60 (pow b 3) (pow c 2)) (* 84 (pow a 2) (pow b 3)) (* 84 (pow b 2) (pow c 3)) (* 228 (pow a 3) (pow c 2)) (* 224 a b (pow c 3)) (* 260 a c (pow b 3)) (* 260 b c (pow a 3))) 0)))
(check-sat)
(get-model)
(exit)